us6000tkt2_coulomb.inp inverted by Dara Goldberg (USGS/NEIC) with Mo = 4.85e+20N-m, and Mw = 7.72
See Hayes(2017), The finite, kinematic rupture properties of great-sized earthquakes since 1990, EPSL 468, 94-100
#reg1=  0  #reg2=  0  #fixed= 325  sym=  1
 PR1=       0.250     PR2=       0.250   DEPTH=       10.000
  E1=      8.000e+05   E2=      8.000e+05
XSYM=       .000     YSYM=       .000
FRIC=          0.400
S1DR=         19.000 S1DP=         -0.010 S1IN=        100.000 S1GD=          0.000
S2DR=         89.990 S2DP=         89.990 S2IN=         30.000 S2GD=          0.000
S3DR=        109.000 S3DP=         -0.010 S3IN=          0.000 S3GD=          0.000

  #   X-start    Y-start     X-fin      Y-fin   Kode  rake     netslip   dip angle     top      bot
xxx xxxxxxxxxx xxxxxxxxxx xxxxxxxxxx xxxxxxxxxx xxx xxxxxxxxxx xxxxxxxxxx xxxxxxxxxx xxxxxxxxxx xxxxxxxxxx
  1  -145.3049    16.6793  -135.3049    16.6793 100    70.3629     0.0187    32.0000     0.7264     3.3760 FFM0
  1  -135.2777    16.7102  -125.2777    16.7102 100   105.7808     0.2434    32.0000     0.7264     3.3760 FFM1
  1  -125.2614    16.7388  -115.2614    16.7388 100   106.8599     1.4264    32.0000     0.7264     3.3760 FFM2
  1  -115.2341    16.7652  -105.2341    16.7652 100   109.5456     2.6652    32.0000     0.7264     3.3760 FFM3
  1  -105.2179    16.7892   -95.2179    16.7892 100   103.1562     2.6144    32.0000     0.7264     3.3760 FFM4
  1   -95.1906    16.8109   -85.1906    16.8109 100    99.3570     3.4391    32.0000     0.7264     3.3760 FFM5
  1   -85.1743    16.8304   -75.1743    16.8304 100    93.4033     3.8544    32.0000     0.7264     3.3760 FFM6
  1   -75.1470    16.8475   -65.1470    16.8475 100    93.7261     4.1642    32.0000     0.7264     3.3760 FFM7
  1   -65.1308    16.8624   -55.1308    16.8624 100   103.2359     4.7872    32.0000     0.7264     3.3760 FFM8
  1   -55.1035    16.8750   -45.1035    16.8750 100   109.7143     4.3155    32.0000     0.7264     3.3760 FFM9
  1   -45.0872    16.8853   -35.0872    16.8853 100   109.7958     4.1872    32.0000     0.7264     3.3760 FFM10
  1   -35.0599    16.8933   -25.0599    16.8933 100   107.3490     3.2437    32.0000     0.7264     3.3760 FFM11
  1   -25.0436    16.8990   -15.0436    16.8990 100    98.4697     1.9097    32.0000     0.7264     3.3760 FFM12
  1   -15.0163    16.9025    -5.0163    16.9025 100   108.4964     1.8580    32.0000     0.7264     3.3760 FFM13
  1    -5.0000    16.9036     5.0000    16.9036 100   105.3797     1.8350    32.0000     0.7264     3.3760 FFM14
  1     5.0163    16.9025    15.0163    16.9025 100    99.9654     1.3478    32.0000     0.7264     3.3760 FFM15
  1    15.0436    16.8990    25.0436    16.8990 100   107.6312     1.1857    32.0000     0.7264     3.3760 FFM16
  1    25.0599    16.8933    35.0599    16.8933 100   102.6191     0.6168    32.0000     0.7264     3.3760 FFM17
  1    35.0872    16.8853    45.0872    16.8853 100   104.1251     0.0013    32.0000     0.7264     3.3760 FFM18
  1    45.1035    16.8750    55.1035    16.8750 100    76.3155     0.0036    32.0000     0.7264     3.3760 FFM19
  1    55.1308    16.8624    65.1308    16.8624 100    70.1590     0.7292    32.0000     0.7264     3.3760 FFM20
  1    65.1470    16.8475    75.1470    16.8475 100    89.9221     0.0177    32.0000     0.7264     3.3760 FFM21
  1    75.1743    16.8304    85.1743    16.8304 100    80.2796     0.0036    32.0000     0.7264     3.3760 FFM22
  1    85.1906    16.8109    95.1906    16.8109 100    72.4636     0.0081    32.0000     0.7264     3.3760 FFM23
  1    95.2179    16.7892   105.2179    16.7892 100    87.1742     0.0705    32.0000     0.7264     3.3760 FFM24
  1  -145.2914    12.4542  -135.2914    12.4542 100   106.0682     0.0469    32.0000     3.3760     6.0256 FFM25
  1  -135.2651    12.4851  -125.2651    12.4851 100   109.2947     0.1070    32.0000     3.3760     6.0256 FFM26
  1  -125.2499    12.5138  -115.2499    12.5138 100   108.3488     1.3276    32.0000     3.3760     6.0256 FFM27
  1  -115.2236    12.5402  -105.2236    12.5402 100   109.7174     2.1554    32.0000     3.3760     6.0256 FFM28
  1  -105.2083    12.5642   -95.2083    12.5642 100   109.4092     1.7968    32.0000     3.3760     6.0256 FFM29
  1   -95.1819    12.5860   -85.1819    12.5860 100   104.5235     3.1272    32.0000     3.3760     6.0256 FFM30
  1   -85.1666    12.6055   -75.1666    12.6055 100    87.6169     2.9065    32.0000     3.3760     6.0256 FFM31
  1   -75.1403    12.6227   -65.1403    12.6227 100    83.2665     5.2147    32.0000     3.3760     6.0256 FFM32
  1   -65.1250    12.6376   -55.1250    12.6376 100    90.7040     7.0614    32.0000     3.3760     6.0256 FFM33
  1   -55.0987    12.6502   -45.0987    12.6502 100    97.1917     6.3114    32.0000     3.3760     6.0256 FFM34
  1   -45.0833    12.6605   -35.0833    12.6605 100   100.7380     5.9175    32.0000     3.3760     6.0256 FFM35
  1   -35.0570    12.6685   -25.0570    12.6685 100    95.1595     4.7049    32.0000     3.3760     6.0256 FFM36
  1   -25.0417    12.6742   -15.0417    12.6742 100    91.5663     3.5519    32.0000     3.3760     6.0256 FFM37
  1   -15.0153    12.6777    -5.0153    12.6777 100    99.8280     3.2676    32.0000     3.3760     6.0256 FFM38
  1    -5.0000    12.6788     5.0000    12.6788 100    97.9864     2.6689    32.0000     3.3760     6.0256 FFM39
  1     5.0153    12.6777    15.0153    12.6777 100    88.3543     1.9649    32.0000     3.3760     6.0256 FFM40
  1    15.0417    12.6742    25.0417    12.6742 100    80.6873     1.2098    32.0000     3.3760     6.0256 FFM41
  1    25.0570    12.6685    35.0570    12.6685 100    70.9333     0.4713    32.0000     3.3760     6.0256 FFM42
  1    35.0833    12.6605    45.0833    12.6605 100    74.1596     0.0088    32.0000     3.3760     6.0256 FFM43
  1    45.0987    12.6502    55.0987    12.6502 100    97.6375     0.0022    32.0000     3.3760     6.0256 FFM44
  1    55.1250    12.6376    65.1250    12.6376 100    72.7347     0.1940    32.0000     3.3760     6.0256 FFM45
  1    65.1403    12.6227    75.1403    12.6227 100    79.6480     0.0132    32.0000     3.3760     6.0256 FFM46
  1    75.1666    12.6055    85.1666    12.6055 100    74.8099     0.0242    32.0000     3.3760     6.0256 FFM47
  1    85.1819    12.5860    95.1819    12.5860 100    84.9052     0.0001    32.0000     3.3760     6.0256 FFM48
  1    95.2083    12.5642   105.2083    12.5642 100   108.6077     0.0073    32.0000     3.3760     6.0256 FFM49
  1  -145.2780     8.2401  -135.2780     8.2401 100    83.5083     0.0601    32.0000     6.0256     8.6752 FFM50
  1  -135.2526     8.2711  -125.2526     8.2711 100    96.9712     0.0305    32.0000     6.0256     8.6752 FFM51
  1  -125.2383     8.2998  -115.2383     8.2998 100   100.4479     0.5613    32.0000     6.0256     8.6752 FFM52
  1  -115.2130     8.3262  -105.2130     8.3262 100    95.5241     1.2674    32.0000     6.0256     8.6752 FFM53
  1  -105.1986     8.3503   -95.1986     8.3503 100   105.3858     1.0898    32.0000     6.0256     8.6752 FFM54
  1   -95.1733     8.3721   -85.1733     8.3721 100   109.8476     1.4858    32.0000     6.0256     8.6752 FFM55
  1   -85.1589     8.3916   -75.1589     8.3916 100   108.6126     1.1591    32.0000     6.0256     8.6752 FFM56
  1   -75.1336     8.4088   -65.1336     8.4088 100    84.2721     3.4709    32.0000     6.0256     8.6752 FFM57
  1   -65.1192     8.4237   -55.1192     8.4237 100    86.5382     5.6341    32.0000     6.0256     8.6752 FFM58
  1   -55.0938     8.4364   -45.0938     8.4364 100    89.7853     5.4497    32.0000     6.0256     8.6752 FFM59
  1   -45.0795     8.4467   -35.0795     8.4467 100    92.6981     5.2325    32.0000     6.0256     8.6752 FFM60
  1   -35.0541     8.4547   -25.0541     8.4547 100    88.0235     4.9392    32.0000     6.0256     8.6752 FFM61
  1   -25.0397     8.4605   -15.0397     8.4605 100    87.6630     4.5708    32.0000     6.0256     8.6752 FFM62
  1   -15.0144     8.4639    -5.0144     8.4639 100    98.2307     4.2745    32.0000     6.0256     8.6752 FFM63
  1    -5.0000     8.4651     5.0000     8.4651 100    90.0874     3.1004    32.0000     6.0256     8.6752 FFM64
  1     5.0144     8.4639    15.0144     8.4639 100    79.8982     2.2047    32.0000     6.0256     8.6752 FFM65
  1    15.0397     8.4605    25.0397     8.4605 100    73.9534     1.6040    32.0000     6.0256     8.6752 FFM66
  1    25.0541     8.4547    35.0541     8.4547 100    70.5846     0.5253    32.0000     6.0256     8.6752 FFM67
  1    35.0795     8.4467    45.0795     8.4467 100    79.5229     0.0132    32.0000     6.0256     8.6752 FFM68
  1    45.0938     8.4364    55.0938     8.4364 100    71.7861     0.1744    32.0000     6.0256     8.6752 FFM69
  1    55.1192     8.4237    65.1192     8.4237 100    80.3698     0.0823    32.0000     6.0256     8.6752 FFM70
  1    65.1336     8.4088    75.1336     8.4088 100    70.5415     0.0471    32.0000     6.0256     8.6752 FFM71
  1    75.1589     8.3916    85.1589     8.3916 100    80.6308     0.0823    32.0000     6.0256     8.6752 FFM72
  1    85.1733     8.3721    95.1733     8.3721 100   101.9605     0.1340    32.0000     6.0256     8.6752 FFM73
  1    95.1986     8.3503   105.1986     8.3503 100    90.5510     0.0004    32.0000     6.0256     8.6752 FFM74
  1  -145.2644     4.0150  -135.2644     4.0150 100    89.0788     0.0063    32.0000     8.6752    11.3248 FFM75
  1  -135.2401     4.0460  -125.2401     4.0460 100    73.1396     0.1548    32.0000     8.6752    11.3248 FFM76
  1  -125.2267     4.0747  -115.2267     4.0747 100    80.3393     0.4902    32.0000     8.6752    11.3248 FFM77
  1  -115.2023     4.1012  -105.2023     4.1012 100    96.1898     0.8126    32.0000     8.6752    11.3248 FFM78
  1  -105.1890     4.1253   -95.1890     4.1253 100   106.4111     0.9604    32.0000     8.6752    11.3248 FFM79
  1   -95.1646     4.1472   -85.1646     4.1472 100   109.3936     1.4154    32.0000     8.6752    11.3248 FFM80
  1   -85.1512     4.1667   -75.1512     4.1667 100   109.6877     1.3353    32.0000     8.6752    11.3248 FFM81
  1   -75.1268     4.1839   -65.1268     4.1839 100   101.8381     1.8108    32.0000     8.6752    11.3248 FFM82
  1   -65.1134     4.1989   -55.1134     4.1989 100    81.3462     2.6742    32.0000     8.6752    11.3248 FFM83
  1   -55.0890     4.2115   -45.0890     4.2115 100    81.3864     2.2434    32.0000     8.6752    11.3248 FFM84
  1   -45.0756     4.2219   -35.0756     4.2219 100    87.3262     2.5411    32.0000     8.6752    11.3248 FFM85
  1   -35.0512     4.2299   -25.0512     4.2299 100    78.0546     3.3468    32.0000     8.6752    11.3248 FFM86
  1   -25.0378     4.2356   -15.0378     4.2356 100    79.7313     3.7350    32.0000     8.6752    11.3248 FFM87
  1   -15.0134     4.2391    -5.0134     4.2391 100    90.2608     4.0823    32.0000     8.6752    11.3248 FFM88
  1    -5.0000     4.2402     5.0000     4.2402 100    74.3961     3.0319    32.0000     8.6752    11.3248 FFM89
  1     5.0134     4.2391    15.0134     4.2391 100    70.6303     2.2985    32.0000     8.6752    11.3248 FFM90
  1    15.0378     4.2356    25.0378     4.2356 100    70.4170     1.9470    32.0000     8.6752    11.3248 FFM91
  1    25.0512     4.2299    35.0512     4.2299 100    70.2015     0.7609    32.0000     8.6752    11.3248 FFM92
  1    35.0756     4.2219    45.0756     4.2219 100    92.8212     0.1246    32.0000     8.6752    11.3248 FFM93
  1    45.0890     4.2115    55.0890     4.2115 100    82.3914     0.6411    32.0000     8.6752    11.3248 FFM94
  1    55.1134     4.1989    65.1134     4.1989 100    75.1146     0.4242    32.0000     8.6752    11.3248 FFM95
  1    65.1268     4.1839    75.1268     4.1839 100    87.9914     0.2067    32.0000     8.6752    11.3248 FFM96
  1    75.1512     4.1667    85.1512     4.1667 100    83.2589     0.0011    32.0000     8.6752    11.3248 FFM97
  1    85.1646     4.1472    95.1646     4.1472 100   104.8743     0.0647    32.0000     8.6752    11.3248 FFM98
  1    95.1890     4.1253   105.1890     4.1253 100   101.7631     0.0893    32.0000     8.6752    11.3248 FFM99
  1  -145.2508    -0.2102  -135.2508    -0.2102 100    73.7426     0.0674    32.0000    11.3248    13.9744 FFM100
  1  -135.2274    -0.1791  -125.2274    -0.1791 100    97.0652     0.0514    32.0000    11.3248    13.9744 FFM101
  1  -125.2150    -0.1503  -115.2150    -0.1503 100   104.7956     0.2231    32.0000    11.3248    13.9744 FFM102
  1  -115.1916    -0.1238  -105.1916    -0.1238 100   107.1715     0.4383    32.0000    11.3248    13.9744 FFM103
  1  -105.1792    -0.0997   -95.1792    -0.0997 100   109.6694     0.5411    32.0000    11.3248    13.9744 FFM104
  1   -95.1558    -0.0778   -85.1558    -0.0778 100   109.1301     0.7999    32.0000    11.3248    13.9744 FFM105
  1   -85.1434    -0.0582   -75.1434    -0.0582 100   107.8912     0.7312    32.0000    11.3248    13.9744 FFM106
  1   -75.1200    -0.0410   -65.1200    -0.0410 100   109.9137     1.3818    32.0000    11.3248    13.9744 FFM107
  1   -65.1076    -0.0260   -55.1076    -0.0260 100    93.2556     1.3052    32.0000    11.3248    13.9744 FFM108
  1   -55.0841    -0.0134   -45.0841    -0.0134 100    84.9536     0.6536    32.0000    11.3248    13.9744 FFM109
  1   -45.0717    -0.0030   -35.0717    -0.0030 100   105.3635     0.6554    32.0000    11.3248    13.9744 FFM110
  1   -35.0483     0.0051   -25.0483     0.0051 100    98.5816     1.8786    32.0000    11.3248    13.9744 FFM111
  1   -25.0359     0.0108   -15.0359     0.0108 100    81.1399     2.5128    32.0000    11.3248    13.9744 FFM112
  1   -15.0124     0.0143    -5.0124     0.0143 100    79.9014     3.2625    32.0000    11.3248    13.9744 FFM113
  1    -5.0000     0.0154     5.0000     0.0154 100    70.0295     2.9506    32.0000    11.3248    13.9744 FFM114
  1     5.0124     0.0143    15.0124     0.0143 100    70.1002     2.4264    32.0000    11.3248    13.9744 FFM115
  1    15.0359     0.0108    25.0359     0.0108 100    78.3181     1.9749    32.0000    11.3248    13.9744 FFM116
  1    25.0483     0.0051    35.0483     0.0051 100    72.7871     0.5261    32.0000    11.3248    13.9744 FFM117
  1    35.0717    -0.0030    45.0717    -0.0030 100    72.8343     0.2224    32.0000    11.3248    13.9744 FFM118
  1    45.0841    -0.0134    55.0841    -0.0134 100    71.0974     1.1975    32.0000    11.3248    13.9744 FFM119
  1    55.1076    -0.0260    65.1076    -0.0260 100    75.7397     1.3523    32.0000    11.3248    13.9744 FFM120
  1    65.1200    -0.0410    75.1200    -0.0410 100    77.3279     0.7078    32.0000    11.3248    13.9744 FFM121
  1    75.1434    -0.0582    85.1434    -0.0582 100    78.3738     0.0038    32.0000    11.3248    13.9744 FFM122
  1    85.1558    -0.0778    95.1558    -0.0778 100    90.6004     0.0113    32.0000    11.3248    13.9744 FFM123
  1    95.1792    -0.0997   105.1792    -0.0997 100   100.8836     0.0001    32.0000    11.3248    13.9744 FFM124
  1  -145.2372    -4.4243  -135.2372    -4.4243 100    79.2864     0.0960    32.0000    13.9744    16.6240 FFM125
  1  -135.2148    -4.3931  -125.2148    -4.3931 100    99.8441     0.0261    32.0000    13.9744    16.6240 FFM126
  1  -125.2034    -4.3643  -115.2034    -4.3643 100   105.5621     0.0886    32.0000    13.9744    16.6240 FFM127
  1  -115.1810    -4.3378  -105.1810    -4.3378 100   109.4903     0.3764    32.0000    13.9744    16.6240 FFM128
  1  -105.1695    -4.3136   -95.1695    -4.3136 100   107.6348     0.4598    32.0000    13.9744    16.6240 FFM129
  1   -95.1471    -4.2917   -85.1471    -4.2917 100   109.2735     0.2001    32.0000    13.9744    16.6240 FFM130
  1   -85.1357    -4.2721   -75.1357    -4.2721 100    97.3964     0.0264    32.0000    13.9744    16.6240 FFM131
  1   -75.1132    -4.2548   -65.1132    -4.2548 100   109.6226     1.2014    32.0000    13.9744    16.6240 FFM132
  1   -65.1018    -4.2399   -55.1018    -4.2399 100   105.6970     1.3593    32.0000    13.9744    16.6240 FFM133
  1   -55.0793    -4.2272   -45.0793    -4.2272 100   102.1471     1.1535    32.0000    13.9744    16.6240 FFM134
  1   -45.0678    -4.2168   -35.0678    -4.2168 100    82.0418     0.6949    32.0000    13.9744    16.6240 FFM135
  1   -35.0454    -4.2087   -25.0454    -4.2087 100   109.5011     1.7500    32.0000    13.9744    16.6240 FFM136
  1   -25.0339    -4.2030   -15.0339    -4.2030 100    86.2857     1.7203    32.0000    13.9744    16.6240 FFM137
  1   -15.0115    -4.1995    -5.0115    -4.1995 100    78.4232     2.3101    32.0000    13.9744    16.6240 FFM138
  1    -5.0000    -4.1984     5.0000    -4.1984 100    70.8658     2.5403    32.0000    13.9744    16.6240 FFM139
  1     5.0115    -4.1995    15.0115    -4.1995 100    75.5865     2.8131    32.0000    13.9744    16.6240 FFM140
  1    15.0339    -4.2030    25.0339    -4.2030 100    74.5085     1.9948    32.0000    13.9744    16.6240 FFM141
  1    25.0454    -4.2087    35.0454    -4.2087 100    89.9150     0.1105    32.0000    13.9744    16.6240 FFM142
  1    35.0678    -4.2168    45.0678    -4.2168 100    71.0497     0.2483    32.0000    13.9744    16.6240 FFM143
  1    45.0793    -4.2272    55.0793    -4.2272 100    78.2556     1.0987    32.0000    13.9744    16.6240 FFM144
  1    55.1018    -4.2399    65.1018    -4.2399 100    83.8493     1.5782    32.0000    13.9744    16.6240 FFM145
  1    65.1132    -4.2548    75.1132    -4.2548 100    77.2937     1.1832    32.0000    13.9744    16.6240 FFM146
  1    75.1357    -4.2721    85.1357    -4.2721 100    80.1823     0.0348    32.0000    13.9744    16.6240 FFM147
  1    85.1471    -4.2917    95.1471    -4.2917 100    86.5259     0.0304    32.0000    13.9744    16.6240 FFM148
  1    95.1695    -4.3136   105.1695    -4.3136 100   104.1553     0.0217    32.0000    13.9744    16.6240 FFM149
  1  -145.2236    -8.6494  -135.2236    -8.6494 100   101.4336     0.0978    32.0000    16.6240    19.2736 FFM150
  1  -135.2021    -8.6183  -125.2021    -8.6183 100   106.2074     0.1022    32.0000    16.6240    19.2736 FFM151
  1  -125.1917    -8.5894  -115.1917    -8.5894 100    92.9017     0.0780    32.0000    16.6240    19.2736 FFM152
  1  -115.1702    -8.5629  -105.1702    -8.5629 100    98.0968     0.0371    32.0000    16.6240    19.2736 FFM153
  1  -105.1598    -8.5386   -95.1598    -8.5386 100   107.9242     0.2867    32.0000    16.6240    19.2736 FFM154
  1   -95.1383    -8.5167   -85.1383    -8.5167 100   109.1498     0.5524    32.0000    16.6240    19.2736 FFM155
  1   -85.1278    -8.4971   -75.1278    -8.4971 100    93.0923     0.0338    32.0000    16.6240    19.2736 FFM156
  1   -75.1064    -8.4798   -65.1064    -8.4798 100   107.7866     0.7509    32.0000    16.6240    19.2736 FFM157
  1   -65.0959    -8.4648   -55.0959    -8.4648 100   108.8055     1.4144    32.0000    16.6240    19.2736 FFM158
  1   -55.0744    -8.4521   -45.0744    -8.4521 100   109.1649     1.0790    32.0000    16.6240    19.2736 FFM159
  1   -45.0639    -8.4417   -35.0639    -8.4417 100    76.8345     0.3020    32.0000    16.6240    19.2736 FFM160
  1   -35.0424    -8.4336   -25.0424    -8.4336 100   109.1230     0.6584    32.0000    16.6240    19.2736 FFM161
  1   -25.0320    -8.4278   -15.0320    -8.4278 100    83.4796     0.6227    32.0000    16.6240    19.2736 FFM162
  1   -15.0105    -8.4244    -5.0105    -8.4244 100    87.3931     1.0598    32.0000    16.6240    19.2736 FFM163
  1    -5.0000    -8.4232     5.0000    -8.4232 100    83.2565     2.1436    32.0000    16.6240    19.2736 FFM164
  1     5.0105    -8.4244    15.0105    -8.4244 100    78.7873     2.5272    32.0000    16.6240    19.2736 FFM165
  1    15.0320    -8.4278    25.0320    -8.4278 100    70.8929     1.8374    32.0000    16.6240    19.2736 FFM166
  1    25.0424    -8.4336    35.0424    -8.4336 100    71.3612     0.3503    32.0000    16.6240    19.2736 FFM167
  1    35.0639    -8.4417    45.0639    -8.4417 100    97.7199     0.6903    32.0000    16.6240    19.2736 FFM168
  1    45.0744    -8.4521    55.0744    -8.4521 100    70.5831     1.6700    32.0000    16.6240    19.2736 FFM169
  1    55.0959    -8.4648    65.0959    -8.4648 100    70.5256     2.0041    32.0000    16.6240    19.2736 FFM170
  1    65.1064    -8.4798    75.1064    -8.4798 100    76.7435     1.6554    32.0000    16.6240    19.2736 FFM171
  1    75.1278    -8.4971    85.1278    -8.4971 100    73.7311     0.5977    32.0000    16.6240    19.2736 FFM172
  1    85.1383    -8.5167    95.1383    -8.5167 100    75.5121     0.0243    32.0000    16.6240    19.2736 FFM173
  1    95.1598    -8.5386   105.1598    -8.5386 100    82.9870     0.0071    32.0000    16.6240    19.2736 FFM174
  1  -145.2099   -12.8636  -135.2099   -12.8636 100    78.8380     0.0993    32.0000    19.2736    21.9232 FFM175
  1  -135.1894   -12.8323  -125.1894   -12.8323 100   101.2542     0.0030    32.0000    19.2736    21.9232 FFM176
  1  -125.1799   -12.8034  -115.1799   -12.8034 100    83.1694     0.0035    32.0000    19.2736    21.9232 FFM177
  1  -115.1595   -12.7768  -105.1595   -12.7768 100    75.0260     0.0089    32.0000    19.2736    21.9232 FFM178
  1  -105.1500   -12.7526   -95.1500   -12.7526 100   109.7077     0.3802    32.0000    19.2736    21.9232 FFM179
  1   -95.1295   -12.7306   -85.1295   -12.7306 100   109.6099     0.7056    32.0000    19.2736    21.9232 FFM180
  1   -85.1200   -12.7110   -75.1200   -12.7110 100   109.0892     0.0919    32.0000    19.2736    21.9232 FFM181
  1   -75.0995   -12.6936   -65.0995   -12.6936 100   101.9193     0.1928    32.0000    19.2736    21.9232 FFM182
  1   -65.0900   -12.6786   -55.0900   -12.6786 100   107.6145     0.8247    32.0000    19.2736    21.9232 FFM183
  1   -55.0695   -12.6659   -45.0695   -12.6659 100   108.8480     0.6150    32.0000    19.2736    21.9232 FFM184
  1   -45.0600   -12.6555   -35.0600   -12.6555 100    95.2723     0.0047    32.0000    19.2736    21.9232 FFM185
  1   -35.0395   -12.6474   -25.0395   -12.6474 100    84.0393     0.2878    32.0000    19.2736    21.9232 FFM186
  1   -25.0300   -12.6416   -15.0300   -12.6416 100    94.9902     0.0388    32.0000    19.2736    21.9232 FFM187
  1   -15.0095   -12.6382    -5.0095   -12.6382 100    79.5224     0.0092    32.0000    19.2736    21.9232 FFM188
  1    -5.0000   -12.6370     5.0000   -12.6370 100   100.3032     1.1640    32.0000    19.2736    21.9232 FFM189
  1     5.0095   -12.6382    15.0095   -12.6382 100    77.4479     1.6754    32.0000    19.2736    21.9232 FFM190
  1    15.0300   -12.6416    25.0300   -12.6416 100    74.7012     1.3950    32.0000    19.2736    21.9232 FFM191
  1    25.0395   -12.6474    35.0395   -12.6474 100    72.3497     0.4338    32.0000    19.2736    21.9232 FFM192
  1    35.0600   -12.6555    45.0600   -12.6555 100   105.0613     1.1950    32.0000    19.2736    21.9232 FFM193
  1    45.0695   -12.6659    55.0695   -12.6659 100    80.6822     2.0353    32.0000    19.2736    21.9232 FFM194
  1    55.0900   -12.6786    65.0900   -12.6786 100    71.6713     2.4572    32.0000    19.2736    21.9232 FFM195
  1    65.0995   -12.6936    75.0995   -12.6936 100    91.0305     1.5925    32.0000    19.2736    21.9232 FFM196
  1    75.1200   -12.7110    85.1200   -12.7110 100    98.6509     0.5908    32.0000    19.2736    21.9232 FFM197
  1    85.1295   -12.7306    95.1295   -12.7306 100    79.4715     0.0085    32.0000    19.2736    21.9232 FFM198
  1    95.1500   -12.7526   105.1500   -12.7526 100   106.2820     0.0182    32.0000    19.2736    21.9232 FFM199
  1  -145.1961   -17.0887  -135.1961   -17.0887 100    93.9395     0.0881    32.0000    21.9232    24.5728 FFM200
  1  -135.1766   -17.0575  -125.1766   -17.0575 100    79.4045     0.0011    32.0000    21.9232    24.5728 FFM201
  1  -125.1682   -17.0285  -115.1682   -17.0285 100   102.9954     0.0095    32.0000    21.9232    24.5728 FFM202
  1  -115.1487   -17.0019  -105.1487   -17.0019 100    74.9199     0.0028    32.0000    21.9232    24.5728 FFM203
  1  -105.1402   -16.9776   -95.1402   -16.9776 100    97.1527     0.0670    32.0000    21.9232    24.5728 FFM204
  1   -95.1207   -16.9556   -85.1207   -16.9556 100   109.9220     0.6033    32.0000    21.9232    24.5728 FFM205
  1   -85.1122   -16.9359   -75.1122   -16.9359 100    92.6173     0.0071    32.0000    21.9232    24.5728 FFM206
  1   -75.0926   -16.9186   -65.0926   -16.9186 100    96.6980     0.0125    32.0000    21.9232    24.5728 FFM207
  1   -65.0841   -16.9035   -55.0841   -16.9035 100   107.8316     0.2039    32.0000    21.9232    24.5728 FFM208
  1   -55.0646   -16.8908   -45.0646   -16.8908 100   104.9472     0.0854    32.0000    21.9232    24.5728 FFM209
  1   -45.0561   -16.8804   -35.0561   -16.8804 100    88.1124     0.0045    32.0000    21.9232    24.5728 FFM210
  1   -35.0366   -16.8723   -25.0366   -16.8723 100   109.6430     0.3784    32.0000    21.9232    24.5728 FFM211
  1   -25.0281   -16.8665   -15.0281   -16.8665 100   100.5347     0.0160    32.0000    21.9232    24.5728 FFM212
  1   -15.0085   -16.8630    -5.0085   -16.8630 100    89.0625     0.0032    32.0000    21.9232    24.5728 FFM213
  1    -5.0000   -16.8619     5.0000   -16.8619 100   109.7939     0.4661    32.0000    21.9232    24.5728 FFM214
  1     5.0085   -16.8630    15.0085   -16.8630 100    87.4355     0.8180    32.0000    21.9232    24.5728 FFM215
  1    15.0281   -16.8665    25.0281   -16.8665 100    83.3514     0.5400    32.0000    21.9232    24.5728 FFM216
  1    25.0366   -16.8723    35.0366   -16.8723 100    97.9716     0.0011    32.0000    21.9232    24.5728 FFM217
  1    35.0561   -16.8804    45.0561   -16.8804 100   107.9806     0.8829    32.0000    21.9232    24.5728 FFM218
  1    45.0646   -16.8908    55.0646   -16.8908 100    86.4457     1.2682    32.0000    21.9232    24.5728 FFM219
  1    55.0841   -16.9035    65.0841   -16.9035 100    74.4527     1.1918    32.0000    21.9232    24.5728 FFM220
  1    65.0926   -16.9186    75.0926   -16.9186 100   109.9544     0.7103    32.0000    21.9232    24.5728 FFM221
  1    75.1122   -16.9359    85.1122   -16.9359 100   101.8099     0.5769    32.0000    21.9232    24.5728 FFM222
  1    85.1207   -16.9556    95.1207   -16.9556 100    75.9471     0.2066    32.0000    21.9232    24.5728 FFM223
  1    95.1402   -16.9776   105.1402   -16.9776 100    85.8633     0.0051    32.0000    21.9232    24.5728 FFM224
  1  -145.1823   -21.3139  -135.1823   -21.3139 100    82.6782     0.0904    32.0000    24.5728    27.2224 FFM225
  1  -135.1638   -21.2826  -125.1638   -21.2826 100   101.3775     0.1575    32.0000    24.5728    27.2224 FFM226
  1  -125.1563   -21.2536  -115.1563   -21.2536 100    99.3218     0.0217    32.0000    24.5728    27.2224 FFM227
  1  -115.1378   -21.2270  -105.1378   -21.2270 100   107.5894     0.0297    32.0000    24.5728    27.2224 FFM228
  1  -105.1303   -21.2026   -95.1303   -21.2026 100    80.0620     0.0007    32.0000    24.5728    27.2224 FFM229
  1   -95.1118   -21.1806   -85.1118   -21.1806 100   109.8554     0.1407    32.0000    24.5728    27.2224 FFM230
  1   -85.1043   -21.1609   -75.1043   -21.1609 100    80.3808     0.0029    32.0000    24.5728    27.2224 FFM231
  1   -75.0857   -21.1435   -65.0857   -21.1435 100    75.4998     0.0095    32.0000    24.5728    27.2224 FFM232
  1   -65.0782   -21.1285   -55.0782   -21.1285 100    85.8972     0.0351    32.0000    24.5728    27.2224 FFM233
  1   -55.0597   -21.1157   -45.0597   -21.1157 100    84.6249     0.0310    32.0000    24.5728    27.2224 FFM234
  1   -45.0522   -21.1053   -35.0522   -21.1053 100    83.8866     0.0066    32.0000    24.5728    27.2224 FFM235
  1   -35.0336   -21.0972   -25.0336   -21.0972 100   107.7380     0.2994    32.0000    24.5728    27.2224 FFM236
  1   -25.0261   -21.0914   -15.0261   -21.0914 100    97.9123     0.2372    32.0000    24.5728    27.2224 FFM237
  1   -15.0075   -21.0879    -5.0075   -21.0879 100    94.9615     0.0012    32.0000    24.5728    27.2224 FFM238
  1    -5.0000   -21.0867     5.0000   -21.0867 100    87.0524     0.0110    32.0000    24.5728    27.2224 FFM239
  1     5.0075   -21.0879    15.0075   -21.0879 100   108.9246     0.3525    32.0000    24.5728    27.2224 FFM240
  1    15.0261   -21.0914    25.0261   -21.0914 100    87.5028     0.0525    32.0000    24.5728    27.2224 FFM241
  1    25.0336   -21.0972    35.0336   -21.0972 100    81.3853     0.0058    32.0000    24.5728    27.2224 FFM242
  1    35.0522   -21.1053    45.0522   -21.1053 100    91.6704     0.0227    32.0000    24.5728    27.2224 FFM243
  1    45.0597   -21.1157    55.0597   -21.1157 100    71.5395     0.1026    32.0000    24.5728    27.2224 FFM244
  1    55.0782   -21.1285    65.0782   -21.1285 100    87.4964     0.0507    32.0000    24.5728    27.2224 FFM245
  1    65.0857   -21.1435    75.0857   -21.1435 100    92.8825     0.0745    32.0000    24.5728    27.2224 FFM246
  1    75.1043   -21.1609    85.1043   -21.1609 100    77.6251     0.1785    32.0000    24.5728    27.2224 FFM247
  1    85.1118   -21.1806    95.1118   -21.1806 100    75.5139     0.0031    32.0000    24.5728    27.2224 FFM248
  1    95.1303   -21.2026   105.1303   -21.2026 100    71.4776     0.0786    32.0000    24.5728    27.2224 FFM249
  1  -145.1685   -25.5281  -135.1685   -25.5281 100    90.8017     0.0893    32.0000    27.2224    29.8720 FFM250
  1  -135.1510   -25.4967  -125.1510   -25.4967 100   107.6759     0.1735    32.0000    27.2224    29.8720 FFM251
  1  -125.1445   -25.4677  -115.1445   -25.4677 100    98.4592     0.0045    32.0000    27.2224    29.8720 FFM252
  1  -115.1270   -25.4410  -105.1270   -25.4410 100   109.3350     0.0509    32.0000    27.2224    29.8720 FFM253
  1  -105.1205   -25.4166   -95.1205   -25.4166 100    97.6246     0.0222    32.0000    27.2224    29.8720 FFM254
  1   -95.1029   -25.3946   -85.1029   -25.3946 100   103.7692     0.0025    32.0000    27.2224    29.8720 FFM255
  1   -85.0964   -25.3748   -75.0964   -25.3748 100    75.4882     0.0025    32.0000    27.2224    29.8720 FFM256
  1   -75.0788   -25.3574   -65.0788   -25.3574 100    97.1271     0.0020    32.0000    27.2224    29.8720 FFM257
  1   -65.0723   -25.3423   -55.0723   -25.3423 100    83.1175     0.0346    32.0000    27.2224    29.8720 FFM258
  1   -55.0548   -25.3296   -45.0548   -25.3296 100   109.6570     0.6863    32.0000    27.2224    29.8720 FFM259
  1   -45.0482   -25.3191   -35.0482   -25.3191 100   102.7723     0.7239    32.0000    27.2224    29.8720 FFM260
  1   -35.0307   -25.3110   -25.0307   -25.3110 100    72.3798     0.7512    32.0000    27.2224    29.8720 FFM261
  1   -25.0241   -25.3052   -15.0241   -25.3052 100   109.5535     0.5968    32.0000    27.2224    29.8720 FFM262
  1   -15.0066   -25.3017    -5.0066   -25.3017 100    76.0524     0.0035    32.0000    27.2224    29.8720 FFM263
  1    -5.0000   -25.3005     5.0000   -25.3005 100   109.2513     0.0426    32.0000    27.2224    29.8720 FFM264
  1     5.0066   -25.3017    15.0066   -25.3017 100    99.2762     0.5196    32.0000    27.2224    29.8720 FFM265
  1    15.0241   -25.3052    25.0241   -25.3052 100   109.2767     0.2474    32.0000    27.2224    29.8720 FFM266
  1    25.0307   -25.3110    35.0307   -25.3110 100    70.2647     0.0676    32.0000    27.2224    29.8720 FFM267
  1    35.0482   -25.3191    45.0482   -25.3191 100    70.9925     0.1812    32.0000    27.2224    29.8720 FFM268
  1    45.0548   -25.3296    55.0548   -25.3296 100    70.1052     0.2532    32.0000    27.2224    29.8720 FFM269
  1    55.0723   -25.3423    65.0723   -25.3423 100    71.6003     0.1037    32.0000    27.2224    29.8720 FFM270
  1    65.0788   -25.3574    75.0788   -25.3574 100    80.5078     0.0509    32.0000    27.2224    29.8720 FFM271
  1    75.0964   -25.3748    85.0964   -25.3748 100   106.2703     0.0164    32.0000    27.2224    29.8720 FFM272
  1    85.1029   -25.3946    95.1029   -25.3946 100    77.6333     0.0382    32.0000    27.2224    29.8720 FFM273
  1    95.1205   -25.4166   105.1205   -25.4166 100   109.5223     0.0050    32.0000    27.2224    29.8720 FFM274
  1  -145.1546   -29.7533  -135.1546   -29.7533 100   104.0231     0.0959    32.0000    29.8720    32.5216 FFM275
  1  -135.1381   -29.7219  -125.1381   -29.7219 100    90.6726     0.0593    32.0000    29.8720    32.5216 FFM276
  1  -125.1326   -29.6928  -115.1326   -29.6928 100    93.8101     0.0035    32.0000    29.8720    32.5216 FFM277
  1  -115.1161   -29.6661  -105.1161   -29.6661 100    77.0334     0.0034    32.0000    29.8720    32.5216 FFM278
  1  -105.1105   -29.6417   -95.1105   -29.6417 100    92.3420     0.0052    32.0000    29.8720    32.5216 FFM279
  1   -95.0940   -29.6196   -85.0940   -29.6196 100    93.0643     0.0029    32.0000    29.8720    32.5216 FFM280
  1   -85.0885   -29.5998   -75.0885   -29.5998 100    72.0299     0.0231    32.0000    29.8720    32.5216 FFM281
  1   -75.0719   -29.5824   -65.0719   -29.5824 100    81.9723     0.0077    32.0000    29.8720    32.5216 FFM282
  1   -65.0664   -29.5673   -55.0664   -29.5673 100    85.9196     0.1259    32.0000    29.8720    32.5216 FFM283
  1   -55.0498   -29.5545   -45.0498   -29.5545 100   108.3351     0.8180    32.0000    29.8720    32.5216 FFM284
  1   -45.0442   -29.5440   -35.0442   -29.5440 100   109.1983     0.9489    32.0000    29.8720    32.5216 FFM285
  1   -35.0277   -29.5359   -25.0277   -29.5359 100    70.4693     0.8701    32.0000    29.8720    32.5216 FFM286
  1   -25.0221   -29.5301   -15.0221   -29.5301 100   109.9429     0.7331    32.0000    29.8720    32.5216 FFM287
  1   -15.0056   -29.5266    -5.0056   -29.5266 100    95.7220     0.1483    32.0000    29.8720    32.5216 FFM288
  1    -5.0000   -29.5254     5.0000   -29.5254 100    87.0659     0.1038    32.0000    29.8720    32.5216 FFM289
  1     5.0056   -29.5266    15.0056   -29.5266 100   106.2192     0.5262    32.0000    29.8720    32.5216 FFM290
  1    15.0221   -29.5301    25.0221   -29.5301 100   104.7789     0.3774    32.0000    29.8720    32.5216 FFM291
  1    25.0277   -29.5359    35.0277   -29.5359 100    70.6966     0.3384    32.0000    29.8720    32.5216 FFM292
  1    35.0442   -29.5440    45.0442   -29.5440 100    71.2992     0.4475    32.0000    29.8720    32.5216 FFM293
  1    45.0498   -29.5545    55.0498   -29.5545 100   108.0094     0.2507    32.0000    29.8720    32.5216 FFM294
  1    55.0664   -29.5673    65.0664   -29.5673 100   102.2569     0.0807    32.0000    29.8720    32.5216 FFM295
  1    65.0719   -29.5824    75.0719   -29.5824 100    88.6458     0.0105    32.0000    29.8720    32.5216 FFM296
  1    75.0885   -29.5998    85.0885   -29.5998 100    89.9703     0.0003    32.0000    29.8720    32.5216 FFM297
  1    85.0940   -29.6196    95.0940   -29.6196 100    83.8223     0.0368    32.0000    29.8720    32.5216 FFM298
  1    95.1105   -29.6417   105.1105   -29.6417 100    97.5271     0.0357    32.0000    29.8720    32.5216 FFM299
  1  -145.1408   -33.9674  -135.1408   -33.9674 100    98.4758     0.0781    32.0000    32.5216    35.1712 FFM300
  1  -135.1252   -33.9360  -125.1252   -33.9360 100   104.5064     0.0640    32.0000    32.5216    35.1712 FFM301
  1  -125.1207   -33.9069  -115.1207   -33.9069 100   100.7592     0.0016    32.0000    32.5216    35.1712 FFM302
  1  -115.1052   -33.8801  -105.1052   -33.8801 100    85.1611     0.0202    32.0000    32.5216    35.1712 FFM303
  1  -105.1006   -33.8557   -95.1006   -33.8557 100   101.7172     0.0029    32.0000    32.5216    35.1712 FFM304
  1   -95.0851   -33.8335   -85.0851   -33.8335 100    72.6498     0.0070    32.0000    32.5216    35.1712 FFM305
  1   -85.0805   -33.8138   -75.0805   -33.8138 100    70.6258     0.0053    32.0000    32.5216    35.1712 FFM306
  1   -75.0650   -33.7963   -65.0650   -33.7963 100    80.2331     0.0137    32.0000    32.5216    35.1712 FFM307
  1   -65.0604   -33.7812   -55.0604   -33.7812 100    87.0256     0.0610    32.0000    32.5216    35.1712 FFM308
  1   -55.0448   -33.7684   -45.0448   -33.7684 100    85.6780     0.0798    32.0000    32.5216    35.1712 FFM309
  1   -45.0403   -33.7579   -35.0403   -33.7579 100   107.4097     0.0853    32.0000    32.5216    35.1712 FFM310
  1   -35.0247   -33.7497   -25.0247   -33.7497 100    85.0424     0.0014    32.0000    32.5216    35.1712 FFM311
  1   -25.0201   -33.7439   -15.0201   -33.7439 100    94.5195     0.0568    32.0000    32.5216    35.1712 FFM312
  1   -15.0046   -33.7404    -5.0046   -33.7404 100    75.8698     0.0114    32.0000    32.5216    35.1712 FFM313
  1    -5.0000   -33.7393     5.0000   -33.7393 100    77.2515     0.0145    32.0000    32.5216    35.1712 FFM314
  1     5.0046   -33.7404    15.0046   -33.7404 100    70.0896     0.0793    32.0000    32.5216    35.1712 FFM315
  1    15.0201   -33.7439    25.0201   -33.7439 100    80.7261     0.0721    32.0000    32.5216    35.1712 FFM316
  1    25.0247   -33.7497    35.0247   -33.7497 100    77.5464     0.0221    32.0000    32.5216    35.1712 FFM317
  1    35.0403   -33.7579    45.0403   -33.7579 100    88.6784     0.0179    32.0000    32.5216    35.1712 FFM318
  1    45.0448   -33.7684    55.0448   -33.7684 100    98.4465     0.0008    32.0000    32.5216    35.1712 FFM319
  1    55.0604   -33.7812    65.0604   -33.7812 100    98.0823     0.0210    32.0000    32.5216    35.1712 FFM320
  1    65.0650   -33.7963    75.0650   -33.7963 100    83.0466     0.0306    32.0000    32.5216    35.1712 FFM321
  1    75.0805   -33.8138    85.0805   -33.8138 100    72.6753     0.0014    32.0000    32.5216    35.1712 FFM322
  1    85.0851   -33.8335    95.0851   -33.8335 100   109.1897     0.0075    32.0000    32.5216    35.1712 FFM323
  1    95.1006   -33.8557   105.1006   -33.8557 100    71.6294     0.0157    32.0000    32.5216    35.1712 FFM324

     Grid Parameters
1 ----------------------------  Start-x =    -330.0676240
2 ----------------------------  Start-y =    -333.5700000
3 --------------------------   Finish-x =     330.0676240
4 --------------------------   Finish-y =     333.5700000
5 -----------------------   x-increment =       6.6013525
6 -----------------------   y-increment =       6.6714000

     Size Parameters
1 --------------------------  Plot size =       6.0000000
2 --------------  Shade/Color increment =       1.0000000
3 ------  Exaggeration for disp.& dist. =   10000.0000000

     Cross section default
1 ----------------------------  Start-x =     118.3517000
2 ----------------------------  Start-y =     -11.3101000
3 ---------------------------  Finish-x =     124.3517000
4 ---------------------------  Finish-y =      -5.3101000
5 ------------------  Distant-increment =       6.6013525
6 ----------------------------- Z-depth =     -10.0000000
7 ------------------------  Z-increment =       1.0000000

     Map info
1 ---------------------------  min. lon =     118.3517000
2 ---------------------------  max. lon =     124.3517000
3 ---------------------------  zero lon =     121.3517000
4 ---------------------------  min. lat =     -11.3101000
5 ---------------------------  max. lat =      -5.3101000
6 ---------------------------  zero lat =      -8.3101000
7 ------------------------  Z-increment =       1.0000000
