header line 1 
header line 2 
#reg1=  0  #reg2=  0  #fixed=   1  sym=  1
 PR1=       0.250     PR2=       0.250   DEPTH=      23.500
  E1=      8.00e5   E2=      8.00e5
XSYM=       .000     YSYM=       .000
FRIC=          0.400
S1DR=         19.000 S1DP=         -0.010 S1IN=        100.000 S1GD=          0.000
S2DR=         89.990 S2DP=         89.990 S2IN=         30.000 S2GD=          0.000
S3DR=        109.000 S3DP=         -0.010 S3IN=          0.000 S3GD=          0.000

  #   X-start    Y-start     X-fin      Y-fin   Kode  rt.lat    reverse   dip angle     top      bot
xxx xxxxxxxxxx xxxxxxxxxx xxxxxxxxxx xxxxxxxxxx xxx xxxxxxxxxx xxxxxxxxxx xxxxxxxxxx xxxxxxxxxx xxxxxxxxxx
  1   -78.2710    23.2195    78.2710    23.2195 100    -0.0000     1.8855    32.0000     8.9909    38.0091    Fault 1 
  2   143.6210    65.8870    49.6517   100.0890 100     1.5056     0.0789    89.0000     6.1730    28.8270    Fault 2 
  
    Grid Parameters
  1  ----------------------------  Start-x =     -110.0159161
  2  ----------------------------  Start-y =     -111.1949266
  3  --------------------------   Finish-x =      110.0159161
  4  --------------------------   Finish-y =      111.1949266
  5  ------------------------  x-increment =        4.4006366
  6  ------------------------  y-increment =        4.4477971
     Size Parameters
  1  --------------------------  Plot size =        2.0000000
  2  --------------  Shade/Color increment =        1.0000000
  3  ------  Exaggeration for disp.& dist. =    10000.0000000
  
     Cross section default
  1  ----------------------------  Start-x =     -110.0159161
  2  ----------------------------  Start-y =     -111.1949266
  3  --------------------------   Finish-x =      110.0159161
  4  --------------------------   Finish-y =      111.1949266
  5  ------------------  Distant-increment =        4.4006366
  6  ----------------------------  Z-depth =       23.5000000
  7  ------------------------  Z-increment =        1.0000000
     Map info
  1  ---------------------------- min. lon =      120.3480000
  2  ---------------------------- max. lon =      122.3480000
  3  ---------------------------- zero lon =      121.3480000
  4  ---------------------------- min. lat =       -9.3510000
  5  ---------------------------- max. lat =       -7.3510000
  6  ---------------------------- zero lat =       -8.3510000
